
Gurobi 7.0.1 (linux64) logging started Sun Jul  2 20:13:27 2017

Optimize a model with 28874 rows, 14464 columns and 80225 nonzeros
Variable types: 0 continuous, 14464 integer (14464 binary)
Coefficient statistics:
  Matrix range     [1e+00, 9e+00]
  Objective range  [1e+00, 1e+00]
  Bounds range     [1e+00, 1e+00]
  RHS range        [1e+00, 5e+01]
Presolve removed 28741 rows and 14390 columns
Presolve time: 0.04s
Presolved: 133 rows, 74 columns, 817 nonzeros
Variable types: 0 continuous, 74 integer (74 binary)

Root relaxation: objective 7.000000e+00, 18 iterations, 0.00 seconds

    Nodes    |    Current Node    |     Objective Bounds      |     Work
 Expl Unexpl |  Obj  Depth IntInf | Incumbent    BestBd   Gap | It/Node Time

     0     0    7.00000    0    2          -    7.00000      -     -    0s
     0     0    7.00000    0    3          -    7.00000      -     -    0s
     0     0    7.00000    0    2          -    7.00000      -     -    0s
     0     0    7.00000    0    2          -    7.00000      -     -    0s
     0     0    7.00000    0    3          -    7.00000      -     -    0s
     0     0    7.00000    0    2          -    7.00000      -     -    0s
     0     0    7.00000    0    2          -    7.00000      -     -    0s
     0     2    7.00000    0    2          -    7.00000      -     -    0s
*   22     6               7       6.0000000    6.00000  0.00%   2.4    0s

Cutting planes:
  Gomory: 1
  MIR: 2
  Lazy constraints: 28

Explored 23 nodes (145 simplex iterations) in 0.32 seconds
Thread count was 12 (of 12 available processors)

Solution count 1: 6 
Pool objective bound 6

Optimal solution found (tolerance 1.00e-04)
Best objective 6.000000000000e+00, best bound 6.000000000000e+00, gap 0.0000%
Optimize a model with 28874 rows, 14464 columns and 80225 nonzeros
Variable types: 0 continuous, 14464 integer (14464 binary)
Coefficient statistics:
  Matrix range     [1e+00, 9e+00]
  Objective range  [3e-01, 7e-01]
  Bounds range     [1e+00, 1e+00]
  RHS range        [1e+00, 5e+01]
Presolve removed 28741 rows and 14390 columns
Presolve time: 0.03s
Presolved: 133 rows, 74 columns, 817 nonzeros

Loaded MIP start with objective 3.33067e-16

Variable types: 0 continuous, 74 integer (74 binary)

Root relaxation: objective 1.285714e+00, 26 iterations, 0.00 seconds

    Nodes    |    Current Node    |     Objective Bounds      |     Work
 Expl Unexpl |  Obj  Depth IntInf | Incumbent    BestBd   Gap | It/Node Time

     0     0    1.28571    0    1    0.00000    1.28571      -     -    0s
     0     0    1.28571    0    3    0.00000    1.28571      -     -    0s
     0     0    1.28571    0    4    0.00000    1.28571      -     -    0s
H    0     0                       0.2857143    1.28571   350%     -    0s
     0     0    1.28571    0    2    0.28571    1.28571   350%     -    0s
     0     2    1.28571    0    2    0.28571    1.28571   350%     -    0s

Cutting planes:
  Gomory: 1
  Lazy constraints: 9

Explored 6 nodes (157 simplex iterations) in 0.18 seconds
Thread count was 12 (of 12 available processors)

Solution count 2: 0.285714 3.33067e-16 
Pool objective bound 0.285714

Optimal solution found (tolerance 1.00e-04)
Best objective 2.857142857143e-01, best bound 2.857142857143e-01, gap 0.0000%
Optimize a model with 28874 rows, 14464 columns and 80225 nonzeros
Variable types: 0 continuous, 14464 integer (14464 binary)
Coefficient statistics:
  Matrix range     [1e+00, 9e+00]
  Objective range  [3e-01, 7e-01]
  Bounds range     [1e+00, 1e+00]
  RHS range        [1e+00, 5e+01]
Presolve removed 28741 rows and 14390 columns
Presolve time: 0.03s
Presolved: 133 rows, 74 columns, 817 nonzeros

Loaded MIP start with objective -2.22045e-16

Variable types: 0 continuous, 74 integer (74 binary)

Root relaxation: objective 1.000000e+00, 26 iterations, 0.00 seconds

    Nodes    |    Current Node    |     Objective Bounds      |     Work
 Expl Unexpl |  Obj  Depth IntInf | Incumbent    BestBd   Gap | It/Node Time

     0     0    1.00000    0    1   -0.00000    1.00000      -     -    0s
     0     0    1.00000    0    3   -0.00000    1.00000      -     -    0s
     0     0    1.00000    0    4   -0.00000    1.00000      -     -    0s
     0     0    1.00000    0    2   -0.00000    1.00000      -     -    0s

Cutting planes:
  Gomory: 1
  Lazy constraints: 7

Explored 0 nodes (73 simplex iterations) in 0.14 seconds
Thread count was 12 (of 12 available processors)

Solution count 1: -2.22045e-16 
Pool objective bound -2.22045e-16

Optimal solution found (tolerance 1.00e-04)
Best objective -2.220446049250e-16, best bound -2.220446049250e-16, gap -
